
Gurobi 11.0.3 (linux64) logging started Fri Nov 22 17:59:06 2024

Set parameter LogFile to value "/home/yihong/Coding/OR_SUC/SUC_results_bigM100000_thread4/case24_ieee_rts_theta0.5_epsilon0.025_gurobi_seed1180000_num_gen100_N_WDR100_load_scaling_factor1_proposed_T24quadra_cost.txt"
Set parameter TimeLimit to value 3600
Gurobi Optimizer version 11.0.3 build v11.0.3rc0 (linux64 - "Ubuntu 20.04.6 LTS")

CPU model: AMD EPYC 7532 32-Core Processor, instruction set [SSE2|AVX|AVX2]
Thread count: 64 physical cores, 128 logical processors, using up to 4 threads

Optimize a model with 51942 rows, 29861 columns and 708794 nonzeros
Model fingerprint: 0x6b054775
Model has 2400 quadratic constraints
Variable types: 27461 continuous, 2400 integer (2400 binary)
Coefficient statistics:
  Matrix range     [3e-04, 3e+03]
  QMatrix range    [2e-03, 8e-03]
  QLMatrix range   [2e-01, 6e+01]
  Objective range  [1e+00, 1e+00]
  Bounds range     [1e+00, 1e+00]
  RHS range        [1e+00, 9e+03]
Presolve removed 42118 rows and 12937 columns
Presolve time: 0.24s
Presolved: 9824 rows, 16924 columns, 62110 nonzeros
Presolved model has 2400 quadratic constraint(s)
Variable types: 14524 continuous, 2400 integer (2400 binary)

Root relaxation: objective 7.837794e+04, 8374 iterations, 0.18 seconds (0.25 work units)

    Nodes    |    Current Node    |     Objective Bounds      |     Work
 Expl Unexpl |  Obj  Depth IntInf | Incumbent    BestBd   Gap | It/Node Time

     0     0 78377.9400    0    -          - 78377.9400      -     -    0s
     0     0 429386.261    0  640          - 429386.261      -     -    1s
     0     0 642065.516    0  648          - 642065.516      -     -    1s
     0     0 642117.147    0  343          - 642117.147      -     -    1s
     0     0 642331.434    0  196          - 642331.434      -     -    1s
     0     0 642337.755    0  196          - 642337.755      -     -    1s
     0     0 642337.755    0  196          - 642337.755      -     -    1s
     0     0 642338.287    0  196          - 642338.287      -     -    1s
     0     2 642338.287    0  196          - 642338.287      -     -    2s
H  368   277                    642819.38059 642342.717  0.07%  22.5    4s
*  368   277             116    642819.38059 642342.717  0.07%  22.8    4s

Cutting planes:
  Gomory: 165
  Implied bound: 375
  MIR: 79
  Flow cover: 116
  RLT: 226

Explored 394 nodes (30794 simplex iterations) in 5.53 seconds (7.31 work units)
Thread count was 4 (of 128 available processors)

Solution count 2: 642819 642819 

Optimal solution found (tolerance 1.00e-03)
Warning: max constraint violation (6.9989e-07) exceeds tolerance
Best objective 6.428193805908e+05, best bound 6.423427166482e+05, gap 0.0742%
